
  32    4
  10   10   10   10

   0   0   0   0   0   2 2 14 
   3  10  10  10  10   1 3 
   8  10  10  10  10   1 4 
   3  10  10  10  10   3 9 7 5 
   8  10  10  10  10   2 31 6 
   1  10  10  10  10   1 8 
   9  10  10  10  10   3 31 13 11 
  10  10  10  10  10   2 13 10 
   3  10  10  10  10   3 31 13 12 
   5  10  10  10  10   1 11 
   4  10  10  10  10   1 12 
  10  10  10  10  10   1 15 
  10  10  10  10  10   1 15 
   5  10  10  10  10   2 31 17 
   4  10  10  10  10   1 16 
   3  10  10  10  10   1 17 
   4  10  10  10  10   1 18 
   1  10  10  10  10   1 19 
   6  10  10  10  10   2 25 20 
   2  10  10  10  10   1 21 
   2  10  10  10  10   2 30 22 
  10  10  10  10  10   2 29 23 
   4  10  10  10  10   1 24 
   9  10  10  10  10   2 28 26 
   7  10  10  10  10   2 28 26 
   1  10  10  10  10   1 27 
   1  10  10  10  10   1 32
   8  10  10  10  10   1 32
   8  10  10  10  10   1 32
  10  10  10  10  10   1 32
   3  10  10  10  10   1 32
   0   0   0   0   0   0 
